max: +1.y52  +1.y51  +1.y8  +1.y41  +1.y44  +1.x32  +1.y28  +1.x47  +1.y4  +1.y7  +72.8241169x0  +1.y18  +1.y42  +1.y13  +1.x42  +1.y17  +1.y5  +1.y0  +1.y14  +1.y19  +14.x6  +1.y12  +92.43272232x8  +1.y2  +1.x29  +1.y50  +1.x57  +1.y49  +1.y31  +1.y56  +1.y11  +1.y48  +1.y29  +1.y47  +1.y16  +1.y3  +1.y10  +1.y20  +1.x26  +1.y53  +1.x7  +1.y43  +1.y22  +2.x14  +1.y1  +1.y35  ;
 y52=+d52;
y51=+d51;
y8=+d8+d9;
y41=+d41;
y44=+d44;
x32=+d32;
x32=1;
y28=+d28;
x47=+d47+d48+d49+d50+d51+d52+d53+d54+d55;
x47=+d57;
y4=+d4;
y7=+d7;
x0=+d0+d1+d2+d3+d4+d5;
x0=+d6;
y18=+d18;
y42=+d42;
y13=+d13;
x42=+d42+d43+d44+d45+d46+d56;
x42=+d58;
y17=+d17;
y5=+d5+d25+d33;
y0=+d0;
y14=+d31;
y14=+d14+d32;
y19=+d19;
x6=+d6+d16+d17+d18+d19+d20+d21+d22+d23+d24+d25;
x6=+d26;
y12=+d12;
x8=+d8+d9+d10+d11+d12+d13+d15+d27+d28+d30+d33+d34+d35+d36+d37+d38+d39+d40+d41;
x8=+d45;
y2=+d2+d21+d23+d39;
x29=+d29;
x29=+d30;
y50=+d50;
x57=+d57+d58;
x57=1;
y49=+d49;
y31=+d31;
y56=+d56;
y11=+d11;
y48=+d48;
y29=+d29;
y47=+d47;
y16=+d16;
y3=+d3+d24+d36+d37+d38;
y10=+d10;
y20=+d20+d34;
x26=+d26;
x26=+d27;
y53=+d53+d54+d55;
x7=+d7;
x7=+d46;
y43=+d43;
y22=+d22+d40;
x14=+d14;
x14=+d15;
y1=+d1;
y35=+d35;

